NAME : 10_3_3_1_(13).dat
COMMENT : Henke, Speranza, Wäscher, 2015
TYPE : MCVRP
DIMENSION : 11
EDGE_WEIGHT_TYPE : DISTANCE_MATRIX
CAPACITY : 1000
VEHICLES : 2
PRODUCT TYPES : 3
COMPARTMENTS : 3
NODE_COORD_SECTION
1 50 50
2 57.77 16.25
3 92.19 23.24
4 61.53 7.36
5 31.14 99.02
6 61.75 9.46
7 61.97 48.11
8 46 2.14
9 66.05 52.99
10 25.1 75.96
11 92.37 60.62
DEMAND_SECTION
1 0 0 0
2 115 0 0
3 47 0 0
4 0 0 283
5 10 0 0
6 60 0 0
7 0 99 0
8 254 0 0
9 0 95 0
10 222 0 0
11 0 231 0
DEPOT_SECTION
1
EOF